&CONTROL
    pseudo_dir = "C:\Users\Dimas\.burai\.pseudopot"
/

&SYSTEM
    a     =  3.28910e+00
    c     =  5.30682e+00
    ibrav = 4
    nat   = 4
    ntyp  = 2
/

ATOMIC_SPECIES
Zn     65.39000  Zn.pbe-van.UPF
O      15.99940  O.pbe-rrkjus.UPF

ATOMIC_POSITIONS {crystal}
Zn      0.666668   0.333333   0.500548
Zn      0.333333   0.666668   0.000548
O       0.666668   0.333333   0.879762
O       0.333333   0.666668   0.379762


