&CONTROL
    calculation = "bands"
    max_seconds =  8.64000e+04
    pseudo_dir  = "C:\Users\Dimas\.burai\.pseudopot"
/

&SYSTEM
    a            =  3.28910e+00
    c            =  5.30682e+00
    degauss      =  1.00000e-02
    ecutrho      =  2.25000e+02
    ecutwfc      =  2.50000e+01
    hubbard_u(1) =  1.05000e+01
    hubbard_u(2) =  7.00000e+00
    ibrav        = 4
    lda_plus_u   = .TRUE.
    nat          = 4
    nbnd         = 26
    ntyp         = 2
    occupations  = "fixed"
    smearing     = "gaussian"
/

&ELECTRONS
    conv_thr         =  1.00000e-06
    electron_maxstep = 200
    mixing_beta      =  7.00000e-01
    startingpot      = "atomic"
    startingwfc      = "atomic+random"
/

&BANDS
    lsym           = .FALSE.
    spin_component = 1
/

K_POINTS {tpiba_b}
12
gG     20
M      20
K      20
gG     20
A      20
L      20
H      20
A      0
L      20
M      0
K      20
H      0

ATOMIC_SPECIES
Zn     65.39000  Zn.pbe-van.UPF
O      15.99940  O.pbe-rrkjus.UPF

ATOMIC_POSITIONS {crystal}
Zn      0.666668   0.333333   0.500548
Zn      0.333333   0.666668   0.000548
O       0.666668   0.333333   0.879762
O       0.333333   0.666668   0.379762


